Comps = {frontend0, frontend1, backend0, backend1, database0, database1};
mustComps = {frontend0, frontend1};
Flavs = {tiny, medium, large};
Nodes = {n1, n2, n3};
CRes = {CPU, RAM, storage, bwIn, bwOut};
NRes = {ssl, fwall, encr, avail, latency};
Flav = [{medium, large}, {medium, large}, {tiny, medium, large}, {tiny, medium, large}, {large}, {large}];
Uses = array2d(CompFlavs, CompFlavs, [
	0,0,0,0,1,0,0,0,0,0,0,0,
	0,0,0,0,1,0,0,0,0,0,0,0,
	0,0,0,0,1,0,0,0,0,0,0,0,
	0,0,0,0,1,0,0,0,0,0,0,0,
	0,0,0,0,0,0,0,0,0,0,0,0,
	0,0,0,0,0,0,1,0,0,0,0,0,
	0,0,0,0,0,0,1,0,0,0,0,0,
	0,0,0,0,0,0,0,0,0,0,0,0,
	0,0,0,0,0,0,0,0,0,1,0,0,
	0,0,0,0,0,0,0,0,0,1,0,0,
	0,0,0,0,0,0,0,0,0,0,0,0,
	0,0,0,0,0,0,0,0,0,0,0,0,
]);
mayUse = array2d(Comps, CompFlavs, [
	0,0,0,0,0,0,0,0,0,0,0,0,
	0,0,0,0,0,0,0,0,0,0,0,0,
	1,1,1,1,0,1,1,0,0,0,0,0,
	0,0,0,0,0,0,0,0,1,1,0,0,
	0,0,0,0,0,0,0,0,0,0,0,0,
	0,0,0,0,0,0,0,0,0,0,0,0,
]);
MIN_RBOUNDS = 0;
MAX_RBOUNDS = 1000000;

worstBounds = [0, 0, 0, 0, 0, 0, 0, 0, 0, MAX_RBOUNDS];
bestBounds = [MAX_RBOUNDS - i | i in worstBounds];

comReq = array2d(CompFlavs, Res, [
  4, 452, 418, 483, 628, 1, 1, 0, 97, MAX_RBOUNDS,
  4, 385, 492, 709, 836, 1, 1, 0, 95, MAX_RBOUNDS,
  8, 212, 347, 818, 340, 1, 1, 0, 97, MAX_RBOUNDS,
  2, 395, 488, 244, 468, 1, 0, 1, 96, MAX_RBOUNDS,
  2, 261, 486, 282, 785, 1, 1, 1, 95, MAX_RBOUNDS,
  2, 240, 458, 327, 514, 1, 1, 1, 96, MAX_RBOUNDS,
  8, 459, 292, 727, 676, 1, 0, 1, 95, MAX_RBOUNDS,
  4, 285, 377, 293, 445, 1, 1, 1, 97, MAX_RBOUNDS,
  4, 209, 384, 441, 552, 1, 0, 0, 97, MAX_RBOUNDS,
  4, 411, 401, 874, 291, 1, 0, 0, 97, MAX_RBOUNDS,
  4, 312, 431, 703, 207, 1, 1, 1, 97, MAX_RBOUNDS,
  2, 242, 298, 384, 744, 1, 0, 1, 95, MAX_RBOUNDS,
]);

nodeCap = array2d(Nodes0, Res, [bestBounds[r] | r in Res] ++ [
  16, 58820, 717629, 14409, 18888, 1, 1, 1, 98, 0,
  16, 88602, 858615, 18812, 24838, 1, 1, 0, 98, 0,
  32, 59266, 990514, 22539, 15437, 1, 1, 1, 98, 0,
]);

cost = array2d(Nodes0, Res, [
  0, 0, 0, 0, 0, 0, 0, 0, 0, 0, % no node
  11, 9, 16, 0, 0, 0, 0, 0, 0, 0,
  11, 10, 22, 0, 0, 0, 0, 0, 0, 0,
  18, 6, 22, 0, 0, 0, 0, 0, 0, 0,
]);

carb = array2d(Nodes0, Res, [
  0, 0, 0, 0, 0, 0, 0, 0, 0, 0, % no node
  13, 50, 32, 0, 0, 0, 0, 0, 0, 0,
  3, 19, 9, 0, 0, 0, 0, 0, 0, 0,
  47, 2, 39, 0, 0, 0, 0, 0, 0, 0,
]);

costBudget = 30944;
carbBudget = 44419;

depReq = array4d(Comps, Flavs, Comps, Res, [
  if c1 = frontend0 /\ c2 = backend0 /\ r = N(avail) then
    96
  elseif c1 = frontend1 /\ c2 = backend1 /\ r = N(avail) then
    97
  elseif c1 = frontend1 /\ c2 = backend0 /\ r = N(avail) then
    97
  else
    worstBounds[r]
  endif | c1 in Comps, i in Flavs, c2 in Comps, r in Res]);

linkCap = array3d(Nodes0, Nodes0, Res, [
  if ni = 0 \/ nj = 0 then
    bestBounds[r]
  elseif ni = nj /\ r = N(avail) then
    nodeCap[ni,r]
  elseif {ni, nj} = {n1, n3} /\ r = N(avail) then
    99
  elseif {ni, nj} = {n1, n2} /\ r = N(avail) then
    98
  elseif {ni, nj} = {n2, n3} /\ r = N(avail) then
    98
  else
    worstBounds[r]
  endif | ni in Nodes0, nj in Nodes0, r in Res]);

imp = array2d(Comps, Flavs, [
  1, 3, 5,
  1, 3, 8,
  2, 4, 6,
  4, 7, 8,
  3, 8, 9,
  2, 5, 9,
]);

